NAME          ClpDefau
ROWS
 N  OBJROW
 L  R_304_0
 L  R_304_1
 L  R_304_2
 L  R_304_3
 L  R_304_4
 L  R_304_5
 L  R_304_6
 L  R_304_7
 L  R_304_8
 L  R_304_9
 L  R_304_10
 L  R_304_11
 L  R_304_12
 L  R_304_13
 L  R_304_14
 L  R_304_15
COLUMNS
    x_0       OBJROW     -8.           R_304_1   9.          
    x_0       R_304_3   8.             R_304_4   1.          
    x_0       R_304_6   6.             R_304_8   9.          
    x_0       R_304_9   3.             R_304_10  1.          
    x_0       R_304_11  3.             R_304_12  9.          
    x_0       R_304_13  9.             R_304_14  3.          
    x_1       OBJROW     -12.          R_304_0   7.          
    x_1       R_304_1   6.             R_304_2   6.          
    x_1       R_304_3   8.             R_304_4   7.          
    x_1       R_304_5   8.             R_304_6   4.          
    x_1       R_304_7   8.             R_304_8   6.          
    x_1       R_304_9   8.             R_304_11  10.         
    x_1       R_304_12  9.             R_304_13  8.          
    x_1       R_304_14  6.          
    x_2       OBJROW     -11.          R_304_2   8.          
    x_2       R_304_3   9.             R_304_4   9.          
    x_2       R_304_5   10.            R_304_6   4.          
    x_2       R_304_7   6.             R_304_9   2.          
    x_2       R_304_10  6.             R_304_11  4.          
    x_2       R_304_13  10.            R_304_14  5.          
    x_2       R_304_15  2.          
    x_3       OBJROW     -47.          R_304_0   3.          
    x_3       R_304_2   4.             R_304_4   1.          
    x_3       R_304_5   6.             R_304_6   1.          
    x_3       R_304_7   2.             R_304_8   1.          
    x_3       R_304_9   3.             R_304_11  3.          
    x_3       R_304_12  1.             R_304_13  1.          
    x_3       R_304_14  4.             R_304_15  1.          
    x_4       OBJROW     -22.          R_304_0   10.         
    x_4       R_304_1   2.             R_304_2   8.          
    x_4       R_304_3   8.             R_304_4   10.         
    x_4       R_304_5   5.             R_304_6   10.         
    x_4       R_304_7   8.             R_304_9   6.          
    x_4       R_304_11  3.             R_304_12  7.          
    x_4       R_304_13  6.             R_304_14  6.          
    x_4       R_304_15  10.         
    x_5       OBJROW     -95.          R_304_1   9.          
    x_5       R_304_3   5.             R_304_4   3.          
    x_5       R_304_5   8.             R_304_6   9.          
    x_5       R_304_8   1.             R_304_10  8.          
    x_5       R_304_11  2.             R_304_12  10.         
    x_5       R_304_13  10.            R_304_14  5.          
    x_5       R_304_15  5.          
    x_6       OBJROW     -86.          R_304_0   1.          
    x_6       R_304_1   7.             R_304_2   2.          
    x_6       R_304_3   2.             R_304_4   2.          
    x_6       R_304_5   4.             R_304_6   1.          
    x_6       R_304_7   8.             R_304_8   9.          
    x_6       R_304_9   4.             R_304_10  4.          
    x_6       R_304_11  7.             R_304_12  1.          
    x_6       R_304_13  1.          
    x_7       OBJROW     -40.          R_304_0   2.          
    x_7       R_304_1   8.             R_304_2   9.          
    x_7       R_304_4   6.             R_304_5   6.          
    x_7       R_304_6   7.             R_304_7   5.          
    x_7       R_304_8   1.             R_304_10  8.          
    x_7       R_304_11  10.            R_304_12  1.          
    x_7       R_304_13  6.             R_304_14  2.          
    x_7       R_304_15  8.          
    x_8       OBJROW     -33.          R_304_0   10.         
    x_8       R_304_1   8.             R_304_2   6.          
    x_8       R_304_3   2.             R_304_4   2.          
    x_8       R_304_5   6.             R_304_6   4.          
    x_8       R_304_7   1.             R_304_8   8.          
    x_8       R_304_9   8.             R_304_10  8.          
    x_8       R_304_11  6.             R_304_12  9.          
    x_8       R_304_14  7.          
    x_9       OBJROW     -78.          R_304_1   4.          
    x_9       R_304_2   10.            R_304_3   7.          
    x_9       R_304_4   2.             R_304_5   10.         
    x_9       R_304_6   6.             R_304_7   9.          
    x_9       R_304_8   7.             R_304_10  1.          
    x_9       R_304_11  5.             R_304_12  6.          
    x_9       R_304_13  9.             R_304_14  3.          
    x_9       R_304_15  7.          
    x_10      OBJROW     -28.          R_304_0   9.          
    x_10      R_304_1   9.             R_304_2   3.          
    x_10      R_304_3   4.             R_304_4   6.          
    x_10      R_304_5   10.            R_304_6   8.          
    x_10      R_304_7   1.             R_304_9   3.          
    x_10      R_304_10  1.             R_304_11  7.          
    x_10      R_304_12  7.             R_304_13  8.          
    x_10      R_304_14  9.             R_304_15  2.          
    x_11      OBJROW     -78.          R_304_0   4.          
    x_11      R_304_1   4.             R_304_2   7.          
    x_11      R_304_4   1.             R_304_5   9.          
    x_11      R_304_6   8.             R_304_7   2.          
    x_11      R_304_8   4.             R_304_9   10.         
    x_11      R_304_10  4.             R_304_12  9.          
    x_11      R_304_13  4.             R_304_14  10.         
    x_11      R_304_15  8.          
    x_12      OBJROW     -5.           R_304_1   10.         
    x_12      R_304_2   8.             R_304_3   10.         
    x_12      R_304_4   4.             R_304_6   6.          
    x_12      R_304_7   8.             R_304_8   2.          
    x_12      R_304_9   8.             R_304_12  9.          
    x_12      R_304_13  2.             R_304_14  6.          
    x_12      R_304_15  7.          
    x_13      OBJROW     -75.          R_304_0   3.          
    x_13      R_304_1   8.             R_304_2   8.          
    x_13      R_304_3   3.             R_304_4   9.          
    x_13      R_304_5   1.             R_304_6   9.          
    x_13      R_304_8   4.             R_304_10  3.          
    x_13      R_304_11  9.             R_304_12  5.          
    x_13      R_304_13  6.             R_304_14  5.          
    x_13      R_304_15  7.          
    x_14      OBJROW     -88.          R_304_0   2.          
    x_14      R_304_1   4.             R_304_2   9.          
    x_14      R_304_4   9.             R_304_5   5.          
    x_14      R_304_6   8.             R_304_7   9.          
    x_14      R_304_8   2.             R_304_9   7.          
    x_14      R_304_11  6.             R_304_12  8.          
    x_14      R_304_13  8.             R_304_14  5.          
    x_14      R_304_15  3.          
    x_15      OBJROW     -21.          R_304_1   4.          
    x_15      R_304_3   2.             R_304_5   6.          
    x_15      R_304_6   3.             R_304_7   4.          
    x_15      R_304_8   9.             R_304_9   7.          
    x_15      R_304_11  5.             R_304_14  6.          
    x_15      R_304_15  5.          
RHS
    RHS       R_304_0   84.            R_304_1   25.         
    RHS       R_304_2   63.            R_304_3   55.         
    RHS       R_304_4   66.            R_304_5   77.         
    RHS       R_304_6   38.            R_304_7   49.         
    RHS       R_304_8   61.            R_304_9   72.         
    RHS       R_304_10  77.            R_304_11  27.         
    RHS       R_304_12  39.            R_304_13  56.         
    RHS       R_304_14  64.            R_304_15  32.         
BOUNDS
 UI BOUND     x_0       100.        
 UI BOUND     x_1       100.        
 UI BOUND     x_2       100.        
 UI BOUND     x_3       100.        
 UI BOUND     x_4       100.        
 UI BOUND     x_5       100.        
 UI BOUND     x_6       100.        
 UI BOUND     x_7       100.        
 UI BOUND     x_8       100.        
 UI BOUND     x_9       100.        
 UI BOUND     x_10      100.        
 UI BOUND     x_11      100.        
 UI BOUND     x_12      100.        
 UI BOUND     x_13      100.        
 UI BOUND     x_14      100.        
 UI BOUND     x_15      100.        
ENDATA
